Gurobi Optimizer version 9.1.2 build v9.1.2rc0 (linux64)
Thread count: 36 physical cores, 72 logical processors, using up to 32 threads
Optimize a model with 12 rows, 57 columns and 590 nonzeros
Model fingerprint: 0xf32eec78
Model has 47 quadratic constraints
Coefficient statistics:
  Matrix range     [2e-05, 3e+00]
  QMatrix range    [1e+00, 1e+00]
  QLMatrix range   [1e+00, 1e+00]
  Objective range  [8e-03, 7e-01]
  Bounds range     [1e+00, 1e+00]
  RHS range        [1e+00, 1e+00]
Presolve removed 9 rows and 0 columns

Continuous model is non-convex -- solving as a MIP.

Presolve removed 9 rows and 0 columns
Presolve time: 0.00s
Presolved: 189 rows, 57 columns, 443 nonzeros
Presolved model has 47 bilinear constraint(s)
Variable types: 57 continuous, 0 integer (0 binary)

Root relaxation: objective -1.743721e+00, 44 iterations, 0.00 seconds

    Nodes    |    Current Node    |     Objective Bounds      |     Work
 Expl Unexpl |  Obj  Depth IntInf | Incumbent    BestBd   Gap | It/Node Time

     0     0   -1.74372    0   38          -   -1.74372      -     -    0s
H    0     0                       0.6147548   -1.74372   384%     -    0s
     0     0   -1.64739    0    1    0.61475   -1.64739   368%     -    0s
H    0     0                      -1.6450460   -1.64739  0.14%     -    0s
     0     0     cutoff    0        -1.64505   -1.64505  0.00%     -    0s

Cutting planes:
  RLT: 25
  BQP: 3

Explored 1 nodes (76 simplex iterations) in 0.01 seconds
Thread count was 32 (of 72 available processors)

Solution count 2: -1.64505 0.614755 
No other solutions better than -1.64505

Optimal solution found (tolerance 1.00e-04)
Best objective -1.645045978473e+00, best bound -1.645045978473e+00, gap 0.0000%

User-callback calls 78, time in user-callback 0.00 sec
Gurobi Optimizer version 9.1.2 build v9.1.2rc0 (linux64)
Thread count: 36 physical cores, 72 logical processors, using up to 32 threads
Optimize a model with 360 rows, 572 columns and 2212 nonzeros
Model fingerprint: 0x2d4c1e6d
Model has 261 quadratic constraints
Coefficient statistics:
  Matrix range     [3e-03, 8e+00]
  QMatrix range    [1e+00, 1e+00]
  QLMatrix range   [1e+00, 1e+00]
  Objective range  [4e-02, 8e+00]
  Bounds range     [1e+00, 8e+00]
  RHS range        [1e+00, 8e+00]
Presolve removed 5 rows and 0 columns

Continuous model is non-convex -- solving as a MIP.

Presolve removed 47 rows and 41 columns
Presolve time: 0.00s
Presolved: 1357 rows, 531 columns, 4088 nonzeros
Presolved model has 261 bilinear constraint(s)
Variable types: 531 continuous, 0 integer (0 binary)

Root relaxation: objective -6.375738e+02, 300 iterations, 0.01 seconds

    Nodes    |    Current Node    |     Objective Bounds      |     Work
 Expl Unexpl |  Obj  Depth IntInf | Incumbent    BestBd   Gap | It/Node Time

     0     0 -637.57379    0   40          - -637.57379      -     -    0s
     0     0 -637.45579    0   48          - -637.45579      -     -    0s
     0     0 -637.43133    0   40          - -637.43133      -     -    0s
     0     0 -637.38068    0   48          - -637.38068      -     -    0s
     0     0 -637.20771    0   48          - -637.20771      -     -    0s
H    0     0                    -600.8815725 -637.20771  6.05%     -    0s
H    0     0                    -602.2796048 -637.20771  5.80%     -    0s
     0     2 -637.20771    0   48 -602.27960 -637.20771  5.80%     -    0s
H 1595  1538                    -606.7396331 -624.96393  3.00%   5.0    0s
H 1625  1538                    -607.2644290 -624.96393  2.91%   5.0    0s
H 1655  1538                    -609.4235111 -624.96393  2.55%   5.0    0s
H 1785  1538                    -611.4025230 -624.96393  2.22%   4.9    0s
H 3235  1202                    -611.6395658 -622.14496  1.72%   5.0    0s
H 4143  1258                    -612.4420017 -622.14496  1.58%   5.4    0s
H 5665  1138                    -614.0382543 -622.14496  1.32%   5.6    1s
* 6527  1303              92    -614.2819714 -622.14496  1.28%   5.6    1s
* 6537  1303              93    -614.2819726 -622.14496  1.28%   5.6    1s
* 6541  1303              94    -614.2819738 -622.14496  1.28%   5.6    1s
* 7193  1564              95    -614.2819749 -621.93095  1.25%   5.5    1s
H 7195  1564                    -614.3108621 -621.93095  1.24%   5.5    1s
* 9044  2024              97    -614.3801271 -620.57403  1.01%   5.3    1s
* 9046  2024              96    -614.3801319 -620.57403  1.01%   5.3    1s
* 9048  2024              96    -614.3801366 -620.57403  1.01%   5.3    1s
* 9053  2024              97    -614.3801380 -620.57403  1.01%   5.3    1s
* 9055  2024              96    -614.3801428 -620.57403  1.01%   5.3    1s
* 9057  2024              96    -614.3801475 -620.57403  1.01%   5.3    1s
H 9331  1983                    -614.7570101 -620.57403  0.95%   5.3    1s
H13805  3328                    -614.7914426 -618.41820  0.59%   5.1    1s
H13984  2720                    -615.2177625 -618.24886  0.49%   5.1    1s
*45534  5331             110    -615.2233799 -616.17666  0.15%   5.1    4s
*45536  4684             111    -615.3469276 -616.17666  0.13%   5.1    4s
 53439  5262 -615.80146   56   31 -615.34693 -615.98677  0.10%   5.2    5s
*84248  5797             118    -615.3481981 -615.67925  0.05%   5.4    6s
*84250  5757             119    -615.3508063 -615.67925  0.05%   5.4    6s
*93924  5793             125    -615.3522584 -615.62151  0.04%   5.5    7s
*93925  5789             125    -615.3525182 -615.62151  0.04%   5.5    7s
*94663  5733              91    -615.3559553 -615.62060  0.04%   5.5    7s
*94664  5729              92    -615.3561019 -615.62060  0.04%   5.5    7s
*94675  5729              96    -615.3561082 -615.62060  0.04%   5.5    7s
H99019  5387                    -615.3681127 -615.58594  0.04%   5.5    7s
H101066  5290                    -615.3729468 -615.57415  0.03%   5.5    7s

Explored 131078 nodes (719690 simplex iterations) in 9.54 seconds
Thread count was 32 (of 72 available processors)

Solution count 10: -615.373 -615.368 -615.356 ... -615.223

Optimal solution found (tolerance 1.00e-04)
Best objective -6.153729467614e+02, best bound -6.154318155024e+02, gap 0.0096%

User-callback calls 262949, time in user-callback 0.04 sec



objective value: -615.372946761377
objective bound: -615.4318155023694
w_opt: 1-dimensional DenseAxisArray{Float64,1,...} with index sets:
    Dimension 1, [(25, 1, 2), (25, 1, 1), (25, 1, 14), (20, 1, 2), (20, 1, 1), (20, 1, 14), (1, 1, 2), (1, 1, 1), (1, 1, 14), (2, 1, 2)  …  (20, 15, 23), (20, 15, 3), (8, 15, 30), (8, 15, 29), (8, 15, 23), (8, 15, 3), (2, 15, 30), (2, 15, 29), (2, 15, 23), (2, 15, 3)]
And data, a 261-element Vector{Float64}:
 0.5461633855888127
 0.3374271453653557
 0.0
 1.3603828155844144
 0.840462949693815
 0.0
 0.0
 0.0
 0.0
 0.0
 0.0
 0.0
 0.0
 0.0
 0.0
 0.0
 0.0
 0.0
 0.0
 3.0
 0.0
 0.0
 0.0
 0.0
 0.0
 0.0
 0.0
 0.0
 0.0
 0.0
 0.0
 0.0
 0.0
 0.0
 0.0
 0.0
 0.0
 0.0
 0.0
 0.0
 0.0
 0.0
 0.8835819246443785
 0.19667791773995325
 0.511856314589491
 0.05417879618891863
 0.0
 0.0
 0.0
 0.7470901537468003
 1.9443098501202605
 0.2058006594726795
 0.0
 0.0
 0.0
 0.0
 0.0
 0.0
 0.0
 1.8074806146196185
 1.0
 0.0
 0.0
 0.0
 0.0
 0.0
 0.0
 0.0
 0.0
 0.0
 0.0
 0.0
 0.0
 0.0
 0.75
 2.25
 0.0
 0.48131537054252893
 1.443946111627587
 0.0
 0.0
 0.0
 0.0
 0.0
 0.0
 0.0
 0.0
 0.0
 0.0
 0.0
 0.0
 0.0
 0.7686846294574711
 2.3060538883724133
 0.0
 0.0
 0.0
 0.0
 0.0
 0.0
 0.0
 2.0
 0.9135224593826262
 0.08647754061737378
 0.0
 0.0
 0.0
 0.0
 0.0
 0.0
 0.0
 0.0
 0.0
 0.0
 0.0
 0.0
 0.0
 0.0
 4.46021110336471
 2.9161787302938134
 0.0
 0.0
 0.0
 0.37707239595658104
 0.2465377703848996
 0.0
 0.0
 0.0
 0.0
 0.0
 0.0
 0.0
 0.0
 0.0
 0.0
 0.0
 0.0
 0.0
 0.0
 0.0
 0.0
 0.0
 0.0
 0.0
 0.0
 0.0
 0.0
 0.0
 0.19980744496059774
 0.0
 0.0
 0.0
 0.0
 0.7164922946198304
 0.3582462182100538
 0.0
 0.0
 1.2835077053801678
 0.6417540645559735
 0.0
 0.0
 0.0
 0.0
 0.0
 0.0
 0.0
 0.0
 0.0
 0.0
 0.0
 0.0
 0.0
 0.0
 1.5012206707264981
 0.0
 0.0
 0.0
 0.5505599121788161
 0.5671020824831474
 0.0
 0.0
 0.0
 0.0
 0.0
 0.0
 0.0
 0.0
 0.0
 0.0
 0.0
 0.0
 0.0
 0.0
 0.0
 1.449440087821184
 0.9032135787186458
 0.6473463334601709
 0.0
 0.0
 0.0
 0.0
 0.0
 0.0
 0.0
 0.0
 0.0
 1.5550613448072368
 0.7048674773631647
 0.07266319504045343
 0.0
 0.0
 0.0
 0.0
 0.0
 0.0
 0.4449386551927663
 0.20167872381006322
 0.020790603786319892
 0.0
 0.0
 0.0
 0.0
 0.0
 0.0
 0.0
 0.35596035798716125
 0.7081522607007192
 0.0
 0.0
 0.0
 0.0
 0.0
 0.0
 0.0
 0.0
 0.0
 0.0
 0.0
 0.0
 0.0
 0.0
 0.0
 0.0
 0.0
 0.0
 0.0
 0.0
 0.0
 0.0
 0.0
 0.0
 0.0
 0.0
 0.0
 0.0
 0.0
 0.0
 1.1384262286852251
 4.46907174189545
 0.0
 1.0
x_ij_opt: 1-dimensional DenseAxisArray{Float64,1,...} with index sets:
    Dimension 1, [(43, 30), (43, 22), (43, 6), (44, 22), (45, 30), (45, 29), (45, 28), (45, 24), (45, 23), (40, 29)  …  (5, 7), (5, 14), (6, 4), (6, 3), (1, 14), (1, 10), (1, 23), (1, 1), (3, 2), (3, 1)]
And data, a 116-element Vector{Float64}:
 0.0
 0.4987793292735019
 1.376389833658521
 0.0
 0.8615737713147649
 0.0
 1.6440396420128387
 0.0
 0.0
 0.0
 0.0
 0.0
 0.0
 0.0
 0.0
 0.0
 0.0
 0.0
 0.0010383203176317357
 0.0
 0.7907392280790724
 0.0
 0.0
 0.0
 0.0
 0.0
 0.0
 2.0
 0.0
 0.0
 0.0
 0.0
 0.0
 0.0
 0.0
 0.0
 0.0
 0.0
 0.0
 0.0
 0.0
 0.0
 0.0
 0.6236101663414768
 0.0
 0.0
 0.0
 0.0
 2.220446049250313e-15
 0.0
 0.0
 0.0
 0.0
 0.0
 0.0
 0.3811173346115382
 0.0
 1.1627165006787106
 0.08647754061737378
 2.0
 0.0
 0.0
 0.0
 0.0
 6.0
 0.0
 0.0
 0.0
 0.0
 0.7991542347217705
 0.0
 0.0
 0.0
 0.0
 0.0
 0.0
 0.29184773929928065
 1.056231126918615
 0.0
 0.0
 0.0
 0.0
 0.0
 0.0
 0.0
 0.0
 0.0
 0.1925193853803815
 0.0
 0.0
 0.0
 8.015946320749666e-7
 0.0
 0.0
 0.0
 0.0
 0.0
 0.09345379882677352
 0.0
 0.0
 0.0
 0.0
 0.0
 0.0
 0.0
 0.0
 0.0
 0.0
 1.740020544338402
 0.0
 0.0
 0.0
 0.09678642128135442
 3.9448931362443833
 0.0
 0.0
x_il_opt: 1-dimensional DenseAxisArray{Float64,1,...} with index sets:
    Dimension 1, [(43, 15), (43, 14), (44, 15), (44, 13), (44, 3), (40, 14), (40, 2), (41, 14), (42, 6), (37, 13)  …  (4, 13), (5, 2), (5, 7), (5, 9), (6, 11), (1, 1), (1, 6), (1, 3), (2, 1), (2, 15)]
And data, a 71-element Vector{Float64}:
 0.0
 0.0
 0.0
 2.332592017210855
 0.0
 1.0641126186878804
 0.0
 0.0
 0.0
 0.0
 0.0
 3.0000000000000004
 0.0
 0.0
 3.0
 0.0
 0.0
 0.0
 7.376389833658523
 0.0
 0.7627130285183629
 0.0
 3.0
 1.0747385128298843
 1.9252614821701157
 0.0
 0.6236101663414806
 0.0
 2.618882665388462
 0.19980744496059774
 0.8835905309541684
 0.6674079827891495
 0.0
 0.0
 0.0
 0.0
 0.0
 0.0
 2.2008457652782294
 0.0
 0.0
 0.0
 2.8074806146196183
 0.0
 0.0
 1.9252617699361414
 0.0
 3.0
 0.0
 0.0
 0.0
 0.0
 0.0
 0.0
 2.8972006633397402
 0.0
 0.0
 0.0
 0.0
 0.0
 0.0
 0.0
 0.0
 0.0
 0.0
 0.0
 0.0
 3.0747385178298843
 0.8835819246443785
 0.0
 6.607497970580676
x_lj_opt: 1-dimensional DenseAxisArray{Float64,1,...} with index sets:
    Dimension 1, [(15, 30), (15, 29), (15, 23), (15, 3), (14, 28), (14, 27), (14, 10), (14, 24), (13, 26), (13, 25)  …  (3, 6), (3, 5), (3, 29), (2, 4), (2, 3), (2, 1), (2, 5), (1, 2), (1, 1), (1, 14)]
And data, a 53-element Vector{Float64}:
 1.1384262286852251
 4.46907174189545
 0.0
 1.0
 0.35596035798716125
 0.7081522607007192
 0.0
 0.0
 2.0
 0.9065462011732265
 0.09345379882677318
 1.449440087821184
 0.9032135787186458
 0.6473463334601709
 1.5012206707264981
 0.0
 0.0
 0.0
 0.5505599121788161
 0.5671020824831474
 0.0
 2.0
 1.0000002118658893
 0.0
 0.19980744496059774
 0.0
 4.837283499321289
 3.162716500678712
 0.0
 0.0
 2.0
 0.9135224593826262
 0.08647754061737378
 2.0
 6.0
 0.0
 1.8074806146196185
 1.0
 0.0
 0.0
 0.943768071486753
 2.45616616470975
 0.25997945566159797
 0.0
 0.0
 0.8835819246443785
 0.0
 0.0
 0.0
 3.0
 1.9065462011732268
 1.1778900950591704
 0.0
q_opt: 1-dimensional DenseAxisArray{Float64,1,...} with index sets:
    Dimension 1, [(43, 15), (43, 14), (44, 15), (44, 13), (44, 3), (40, 14), (40, 2), (41, 14), (42, 6), (37, 13)  …  (4, 13), (5, 2), (5, 7), (5, 9), (6, 11), (1, 1), (1, 6), (1, 3), (2, 1), (2, 15)]
And data, a 71-element Vector{Float64}:
 0.0
 0.0
 0.0
 0.7775306724036184
 0.0
 1.0
 0.0
 0.0
 0.0
 0.0
 0.0
 1.0
 0.0
 0.0
 0.375
 0.0
 0.0
 0.0
 0.9220487292073152
 0.0
 0.20839645213905061
 0.0
 1.0
 0.3582461473099153
 0.24065768527126447
 0.0
 0.07795127079268506
 0.0
 1.0
 1.0
 0.286467427462666
 0.2224693275963832
 0.0
 0.0
 0.0
 0.0
 0.0
 0.0
 0.7135325725373343
 0.0
 0.0
 0.0
 1.0
 0.0
 0.0
 0.6417539285902067
 0.0
 1.0
 0.0
 0.0
 0.0
 0.0
 0.0
 0.0
 0.79160354786095
 0.0
 0.0
 0.0
 0.0
 0.0
 0.0
 0.0
 0.0
 0.0
 0.0
 0.0
 0.0
 0.38434231472873553
 1.0
 0.0
 1.0
GUROBI solution time: 9.54258680343628



